# avogadro generated ORCA input file 
# Basic Mode
# 
! RHF SP def2-SVP 

* xyz 0 1
   C       -1.11118        3.34008       -1.80358
   C        0.10821        3.18467       -0.93523
   C        1.15945        1.68727        0.79623
   C        1.43079        2.77681        1.82897
   C        2.47354        1.21360        0.13863
   C        4.28799        1.83474       -1.40389
   N        0.11368        2.04715       -0.16845
   N        2.99447        2.05673       -0.81621
   O        3.06060        0.20632        0.53139
   O        1.01201        4.01488       -0.92353
   H       -0.60176        1.35114       -0.33450
   H        2.55078        2.96963       -0.93194
   H        4.43137        0.77181       -1.61581
   H        5.05379        2.17185       -0.70040
   H        4.35438        2.41277       -2.32835
   H        2.09128        2.39845        2.61705
   H        0.49959        3.11416        2.29612
   H        1.92543        3.65041        1.39324
   H       -1.58326        2.37484       -2.00720
   H       -0.81717        3.78258       -2.75959
   H       -1.82849        3.99413       -1.30101
   H        0.75214        0.81512        1.32373
*
